p tw 44 47
1 2
2 13
3 4
4 5
5 6
5 9
6 7
7 8
8 16
9 10
10 11
11 12
12 14
13 24
14 15
15 40
16 17
17 18
17 38
18 19
19 20
20 21
21 22
22 23
23 25
23 26
24 35
25 38
26 27
27 28
28 29
29 30
30 31
31 32
32 33
33 34
34 36
35 40
36 37
37 38
38 39
40 41
41 42
42 43
42 16
43 44
44 3
